(set-logic QF_S)
(declare-fun var0 () String)
(assert (str.in.re var0 (re.++ (re.* (re.+ (str.to.re "00"))) (re.++ (re.+ (re.+ (str.to.re "11"))) (re.++ (re.+ (re.union (str.to.re "22") (str.to.re "333"))) (re.++ (re.+ (re.union (str.to.re "4") (str.to.re "55"))) (re.++ (re.* (re.* (str.to.re "66"))) (re.++ (re.+ (re.* (str.to.re "7"))) (re.++ (re.+ (re.* (str.to.re "88"))) (re.++ (re.+ (re.* (str.to.re "99"))) (re.++ (re.+ (re.+ (str.to.re "aa"))) (re.union (re.+ (str.to.re "b")) (re.+ (str.to.re "c"))))))))))))))
(assert (<= 376 (str.len var0)))
(check-sat)